&CONTROL
    calculation = 'scf'
    pseudo_dir = '/home/bond/Software/QE/qe-7.4.1/pseudo'
    outdir = '/home/bond/Work/Lab3/Problem7/alat_5.746666666666666'
    tstress = .true.
    tprnfor = .true.
    disk_io = 'none'
/ 
&SYSTEM
    ecutwfc = 35
    ntyp = 1
    nat = 2
    ibrav = 0
/ 
&ELECTRONS
    diagonalization = 'david'
    mixing_beta = 0.5
    conv_thr = 1e-07
/ 
&IONS
/ 
&CELL
/ 
K_POINTS {automatic}
 10 10 10  0 0 0
ATOMIC_SPECIES
  Ge 72.63 ge_lda_v1.4.uspp.F.UPF
CELL_PARAMETERS {angstrom}
 0.0 2.873333333333333 2.873333333333333
 2.873333333333333 0.0 2.873333333333333
 2.873333333333333 2.873333333333333 0.0
ATOMIC_POSITIONS {angstrom}
  Ge 0.00000 0.00000 0.00000
  Ge 1.43667 1.43667 1.43667
