&CONTROL
    calculation = 'vc-relax'
    pseudo_dir = '/home/bond/Software/QE/qe-7.4.1/pseudo'
    outdir = '/home/bond/Work/Lab4/1C/Fe_bcc_mag_anti'
    tstress = .true.
    tprnfor = .true.
    disk_io = 'none'
/ 
&SYSTEM
    ecutwfc = 30
    ecutrho = 300
    nspin = 2
    starting_magnetization(1) = 1
    starting_magnetization(2) = -1
    occupations = 'smearing'
    smearing = 'mp'
    degauss = 0.02
    ntyp = 2
    nat = 2
    ibrav = 0
/ 
&ELECTRONS
    diagonalization = 'david'
    mixing_beta = 0.5
    conv_thr = 1e-07
/ 
&IONS
/ 
&CELL
/ 
K_POINTS {automatic}
 14 14 14  0 0 0
ATOMIC_SPECIES
  Co 58.933194 Fe.pbe-nd-rrkjus.UPF
  Fe 55.845 Fe.pbe-nd-rrkjus.UPF
CELL_PARAMETERS {angstrom}
 2.7 0.0 0.0
 0.0 2.7 0.0
 0.0 0.0 2.7
ATOMIC_POSITIONS {angstrom}
  Fe 0.00000 0.00000 0.00000
  Co 1.35000 1.35000 1.35000
