&CONTROL
   tstress          = .true.
   tprnfor          = .true.
   pseudo_dir       = '/home/bond/Software/QE/qe-7.4.1/pseudo'
/
&SYSTEM
   ecutwfc          = 30
   ntyp             = 1
   nat              = 2
   ibrav            = 0
/
&ELECTRONS
   conv_thr         = 1e-07
   mixing_beta      = 0.5
   diagonalization  = 'david'
/
&IONS
/
&CELL
/
&FCP
/
&RISM
/
ATOMIC_SPECIES
Ge 72.63 ge_lda_v1.4.uspp.F.UPF

K_POINTS automatic
3 3 3  0 0 0

CELL_PARAMETERS angstrom
0.00000000000000 2.50000000000000 2.50000000000000
2.50000000000000 0.00000000000000 2.50000000000000
2.50000000000000 2.50000000000000 0.00000000000000

ATOMIC_POSITIONS angstrom
Ge 0.0000000000 0.0000000000 0.0000000000  
Ge 1.2500000000 1.2500000000 1.2500000000  

